18
 generated by VMD
 C         2.209757       -1.213322       -0.142340
 C         0.876619       -1.015299        0.509264
 C         0.723446        0.456435        0.740412
 C         1.722369        1.151765       -0.112221
 C         2.735244        0.134938       -0.522722
 H        -0.239160        0.770737        0.518171
 H         0.886355        0.672593        1.745754
 H         0.119405       -1.353637       -0.127506
 N         0.778981       -1.745793        1.710952
 H         2.859543       -1.687749        0.518262
 H         2.132366       -1.822584       -0.976103
 H         1.267020        1.562605       -0.947407
 H         2.172414        1.933714        0.402640
 S         4.117022        0.426187        0.214112
 H         2.919835        0.183830       -1.539931
 H         1.712202       -2.003363        1.990534
 H         0.379407       -1.153395        2.422883
 H         4.444784        1.729847        0.525986
18
 generated by VMD
 C         2.188567       -1.181838       -0.141283
 C         0.901609       -0.998176        0.522486
 C         0.746558        0.444330        0.712271
 C         1.716560        1.117789       -0.102973
 C         2.692435        0.128438       -0.514277
 H        -0.276217        0.783117        0.510446
 H         0.893322        0.679942        1.783760
 H         0.089652       -1.365857       -0.153916
 N         0.770926       -1.764238        1.718602
 H         2.884411       -1.704946        0.542682
 H         2.129753       -1.845919       -1.008268
 H         1.249452        1.577972       -0.980057
 H         2.189077        1.963656        0.421264
 S         4.184703        0.460266        0.251643
 H         2.924372        0.185158       -1.579820
 H         1.721974       -2.006916        1.997099
 H         0.374633       -1.149028        2.433229
 H         4.435832        1.703754        0.517851
18
 generated by VMD
 C         2.190263       -1.184357       -0.141368
 C         0.899610       -0.999546        0.521428
 C         0.744709        0.445298        0.714522
 C         1.717025        1.120508       -0.103713
 C         2.695861        0.128958       -0.514953
 H        -0.273252        0.782127        0.511064
 H         0.892764        0.679354        1.780719
 H         0.092032       -1.364880       -0.151803
 N         0.771571       -1.762763        1.717990
 H         2.882422       -1.703570        0.540728
 H         2.129962       -1.844052       -1.005694
 H         1.250858        1.576743       -0.977445
 H         2.187744        1.961260        0.419774
 S         4.179288        0.457540        0.248640
 H         2.924009        0.185051       -1.576629
 H         1.721192       -2.006632        1.996574
 H         0.375015       -1.149377        2.432402
 H         4.436548        1.705841        0.518502
18
 generated by VMD
 C         2.213304       -1.244974       -0.146794
 C         0.846367       -1.032746        0.512029
 C         0.690875        0.469204        0.762810
 C         1.708975        1.199590       -0.127047
 C         2.766669        0.150002       -0.540226
 H        -0.324276        0.798128        0.502176
 H         0.903636        0.688254        1.825972
 H         0.062691       -1.372930       -0.182403
 N         0.752886       -1.811901        1.749057
 H         2.914109       -1.719600        0.564631
 H         2.124772       -1.876868       -1.050732
 H         1.226083        1.597561       -1.025904
 H         2.204167        1.997252        0.439211
 S         4.266855        0.502964        0.295877
 H         2.930754        0.188251       -1.633045
 H         1.744191       -2.016824        2.022534
 H         0.365645       -1.145085        2.460865
 H         4.419865        1.657229        0.501661
18
 generated by VMD
 C         2.210293       -1.237052       -0.146085
 C         0.853325       -1.028407        0.513258
 C         0.697910        0.466080        0.756500
 C         1.710027        1.189255       -0.123997
 C         2.757416        0.147252       -0.536923
 H        -0.317609        0.796037        0.503337
 H         0.902215        0.687091        1.820058
 H         0.066525       -1.371878       -0.178404
 N         0.755328       -1.805480        1.744997
 H         2.909968       -1.717505        0.561507
 H         2.125450       -1.872579       -1.044846
 H         1.229321        1.594841       -1.019571
 H         2.202021        1.992549        0.436671
 S         4.255412        0.497028        0.289704
 H         2.929873        0.187833       -1.625673
 H         1.741186       -2.015492        2.019142
 H         0.366869       -1.145646        2.457145
 H         4.422045        1.663582        0.503862
18
 generated by VMD
 C         2.234960       -1.257151       -0.160977
 C         0.829672       -1.052832        0.515208
 C         0.674672        0.493980        0.770558
 C         1.707190        1.216026       -0.129739
 C         2.821488        0.168086       -0.530967
 H        -0.373333        0.815418        0.503308
 H         0.908268        0.696821        1.864356
 H         0.028218       -1.384296       -0.212440
 N         0.741630       -1.842416        1.786138
 H         2.941652       -1.737061        0.580797
 H         2.125317       -1.904370       -1.082441
 H         1.203635        1.622893       -1.071492
 H         2.215327        2.040424        0.452470
 S         4.276130        0.400547        0.284953
 H         2.949448        0.193990       -1.672374
 H         1.739759       -2.019765        2.046452
 H         0.367423       -1.163454        2.477498
 H         4.426196        1.740616        0.509308
18
 generated by VMD
 C         2.224001       -1.248222       -0.154361
 C         0.840180       -1.041981        0.514342
 C         0.684995        0.481585        0.764313
 C         1.708450        1.204133       -0.127188
 C         2.793024        0.158831       -0.533613
 H        -0.348578        0.806808        0.503321
 H         0.905579        0.692498        1.844677
 H         0.045236       -1.378779       -0.197320
 N         0.747715       -1.826007        1.767861
 H         2.927576       -1.728373        0.572228
 H         2.125376       -1.890247       -1.065740
 H         1.215046        1.610431       -1.048426
 H         2.209416        2.019156        0.445451
 S         4.266926        0.443408        0.287064
 H         2.940752        0.191255       -1.651627
 H         1.740393       -2.017867        2.034320
 H         0.367177       -1.155543        2.468456
 H         4.424352        1.706394        0.506889
18
 generated by VMD
 C         2.235368       -1.237638       -0.168387
 C         0.847927       -1.049903        0.522812
 C         0.682333        0.491433        0.756502
 C         1.719866        1.207463       -0.132190
 C         2.792159        0.152324       -0.550853
 H        -0.388752        0.825850        0.518381
 H         0.900922        0.701145        1.867873
 H         0.013574       -1.391478       -0.217579
 N         0.740297       -1.845284        1.781775
 H         2.948139       -1.746760        0.573974
 H         2.134300       -1.911225       -1.083989
 H         1.207881        1.631209       -1.073299
 H         2.207679        2.064186        0.444473
 S         4.290841        0.446558        0.292891
 H         2.970305        0.201781       -1.658547
 H         1.720903       -2.018958        2.066015
 H         0.370875       -1.186106        2.493565
 H         4.423315        1.692814        0.497269
18
 generated by VMD
 C         2.229795       -1.242827       -0.161510
 C         0.844128       -1.046019        0.518659
 C         0.683638        0.486605        0.760332
 C         1.714269        1.205830       -0.129738
 C         2.792583        0.155514       -0.542400
 H        -0.369054        0.816513        0.510997
 H         0.903206        0.696905        1.856499
 H         0.029098       -1.385252       -0.207645
 N         0.743934       -1.835832        1.774953
 H         2.938057       -1.737745        0.573118
 H         2.129925       -1.900939       -1.075041
 H         1.211394        1.621021       -1.061104
 H         2.208531        2.042107        0.444953
 S         4.279115        0.445014        0.290034
 H         2.955814        0.196620       -1.655154
 H         1.730459       -2.018423        2.050474
 H         0.369062       -1.171121        2.481254
 H         4.423824        1.699472        0.501985
18
 generated by VMD
 C         2.234293       -1.251455       -0.162929
 C         0.837933       -1.047965        0.511339
 C         0.678207        0.487965        0.763965
 C         1.718044        1.217998       -0.139252
 C         2.788503        0.154502       -0.547846
 H        -0.370979        0.822262        0.525540
 H         0.895605        0.699653        1.849785
 H         0.030539       -1.386448       -0.200019
 N         0.739858       -1.837854        1.766917
 H         2.938775       -1.740217        0.559127
 H         2.138168       -1.902422       -1.071558
 H         1.219668        1.624652       -1.055827
 H         2.199009        2.055124        0.432327
 S         4.280652        0.460995        0.287834
 H         2.975125        0.203541       -1.650521
 H         1.722280       -2.021329        2.070282
 H         0.368519       -1.189179        2.497319
 H         4.423739        1.677613        0.494304
18
 generated by VMD
 C         2.233303       -1.249556       -0.162617
 C         0.839296       -1.047537        0.512950
 C         0.679403        0.487665        0.763165
 C         1.717213        1.215319       -0.137158
 C         2.789401        0.154725       -0.546647
 H        -0.370555        0.820997        0.522339
 H         0.897278        0.699048        1.851263
 H         0.030222       -1.386185       -0.201698
 N         0.740755       -1.837409        1.768686
 H         2.938617       -1.739673        0.562206
 H         2.136353       -1.902096       -1.072324
 H         1.217847        1.623853       -1.056989
 H         2.201105        2.052259        0.435106
 S         4.280314        0.457477        0.288318
 H         2.970875        0.202017       -1.651541
 H         1.724080       -2.020689        2.065922
 H         0.368638       -1.185204        2.493783
 H         4.423757        1.682425        0.495995
18
 generated by VMD
 C         2.229640       -1.250380       -0.164067
 C         0.840507       -1.044212        0.511335
 C         0.679914        0.488733        0.757958
 C         1.715637        1.216263       -0.137270
 C         2.788579        0.157248       -0.544054
 H        -0.368541        0.825370        0.536243
 H         0.890690        0.701269        1.844208
 H         0.031965       -1.387622       -0.194489
 N         0.738660       -1.837165        1.764576
 H         2.940174       -1.742343        0.550164
 H         2.144345       -1.903223       -1.069230
 H         1.224532        1.628090       -1.054692
 H         2.192354        2.062818        0.421565
 S         4.272599        0.448067        0.279558
 H         2.988841        0.208035       -1.648401
 H         1.715161       -2.024022        2.080980
 H         0.366410       -1.203500        2.504303
 H         4.426543        1.684009        0.492266
18
 generated by VMD
 C         2.223779       -1.251699       -0.166388
 C         0.842443       -1.038891        0.508750
 C         0.680732        0.490441        0.749626
 C         1.713115        1.217772       -0.137448
 C         2.787263        0.161285       -0.539904
 H        -0.365319        0.832368        0.558489
 H         0.880149        0.704823        1.832920
 H         0.034753       -1.389922       -0.182956
 N         0.735307       -1.836774        1.758001
 H         2.942667       -1.746614        0.530897
 H         2.157131       -1.905028       -1.064280
 H         1.235228        1.634869       -1.051018
 H         2.178353        2.079713        0.399898
 S         4.260256        0.433009        0.265541
 H         3.017587        0.217662       -1.643377
 H         1.700891       -2.029355        2.105072
 H         0.362844       -1.232774        2.521136
 H         4.431000        1.686543        0.486299
18
 generated by VMD
 C         2.227433       -1.250877       -0.164941
 C         0.841236       -1.042208        0.510361
 C         0.680222        0.489376        0.754820
 C         1.714687        1.216831       -0.137337
 C         2.788083        0.158768       -0.542491
 H        -0.367328        0.828006        0.544620
 H         0.886721        0.702607        1.839957
 H         0.033015       -1.388488       -0.190146
 N         0.737397       -1.837018        1.762100
 H         2.941113       -1.743951        0.542909
 H         2.149160       -1.903903       -1.067366
 H         1.228559        1.630643       -1.053309
 H         2.187082        2.069181        0.413406
 S         4.267951        0.442396        0.274280
 H         2.999666        0.211660       -1.646509
 H         1.709787       -2.026030        2.090052
 H         0.365067       -1.214524        2.510642
 H         4.428221        1.684963        0.490019
18
 generated by VMD
 C         2.220188       -1.230587       -0.168855
 C         0.851454       -1.035789        0.526234
 C         0.689157        0.492279        0.745763
 C         1.710259        1.206473       -0.131861
 C         2.780054        0.158939       -0.552010
 H        -0.368999        0.836786        0.562891
 H         0.880898        0.706119        1.832573
 H         0.029374       -1.392994       -0.184724
 N         0.740052       -1.840662        1.768739
 H         2.946689       -1.750715        0.529152
 H         2.158859       -1.909942       -1.073092
 H         1.232557        1.639809       -1.063920
 H         2.175247        2.089660        0.393003
 S         4.271706        0.442166        0.276250
 H         3.023614        0.221214       -1.635907
 H         1.694128       -2.034722        2.106216
 H         0.350179       -1.244796        2.521143
 H         4.432649        1.674239        0.479849
18
 generated by VMD
 C         2.224355       -1.242257       -0.166604
 C         0.845577       -1.039481        0.517105
 C         0.684018        0.490609        0.750973
 C         1.712806        1.212431       -0.135011
 C         2.784672        0.158841       -0.546535
 H        -0.368038        0.831736        0.552382
 H         0.884247        0.704099        1.836820
 H         0.031468       -1.390402       -0.187843
 N         0.738525       -1.838566        1.764921
 H         2.943482       -1.746825        0.537065
 H         2.153280       -1.906468       -1.069799
 H         1.230258        1.634537       -1.057817
 H         2.182054        2.077881        0.404738
 S         4.269546        0.442299        0.275117
 H         3.009840        0.215719       -1.642005
 H         1.703135       -2.029723        2.096919
 H         0.358742       -1.227384        2.515103
 H         4.430102        1.680407        0.485698
18
 generated by VMD
 C         2.227689       -1.239679       -0.170267
 C         0.843145       -1.041128        0.524087
 C         0.682619        0.492336        0.755382
 C         1.711883        1.216159       -0.142159
 C         2.785007        0.161183       -0.548025
 H        -0.368131        0.835158        0.557583
 H         0.885321        0.706186        1.836002
 H         0.032677       -1.390571       -0.182973
 N         0.738407       -1.841975        1.769183
 H         2.943996       -1.746907        0.530262
 H         2.154666       -1.906120       -1.072346
 H         1.230738        1.635741       -1.063664
 H         2.177060        2.084909        0.395711
 S         4.274398        0.442579        0.281072
 H         3.017741        0.220177       -1.640280
 H         1.702782       -2.036676        2.102699
 H         0.344971       -1.239138        2.519073
 H         4.432966        1.675234        0.480055
18
 generated by VMD
 C         2.233023       -1.235554       -0.176128
 C         0.839254       -1.043763        0.535259
 C         0.680382        0.495100        0.762438
 C         1.710407        1.222123       -0.153595
 C         2.785542        0.164931       -0.550411
 H        -0.368281        0.840633        0.565905
 H         0.887039        0.709525        1.834693
 H         0.034612       -1.390840       -0.175181
 N         0.738217       -1.847429        1.776003
 H         2.944819       -1.747040        0.519378
 H         2.156883       -1.905562       -1.076421
 H         1.231506        1.637668       -1.073021
 H         2.169071        2.096153        0.381267
 S         4.282160        0.443027        0.290601
 H         3.030384        0.227311       -1.637521
 H         1.702218       -2.047801        2.111946
 H         0.322938       -1.257945        2.525425
 H         4.437549        1.666958        0.471027
18
 generated by VMD
 C         2.229479       -1.238295       -0.172233
 C         0.841840       -1.042012        0.527835
 C         0.681869        0.493264        0.757750
 C         1.711388        1.218160       -0.145996
 C         2.785187        0.162440       -0.548826
 H        -0.368181        0.836994        0.560376
 H         0.885897        0.707306        1.835563
 H         0.033326       -1.390661       -0.180359
 N         0.738343       -1.843805        1.771471
 H         2.944272       -1.746952        0.526610
 H         2.155410       -1.905933       -1.073713
 H         1.230996        1.636388       -1.066803
 H         2.174380        2.088681        0.390865
 S         4.277002        0.442729        0.284269
 H         3.021983        0.222571       -1.639355
 H         1.702593       -2.040408        2.105801
 H         0.337579       -1.245448        2.521204
 H         4.434504        1.672457        0.477026
18
 generated by VMD
 C         2.228523       -1.238266       -0.175521
 C         0.842877       -1.042850        0.533513
 C         0.681418        0.495646        0.758730
 C         1.708677        1.222591       -0.152933
 C         2.792237        0.168816       -0.545636
 H        -0.369258        0.842086        0.566975
 H         0.891128        0.712544        1.840680
 H         0.034785       -1.390705       -0.172129
 N         0.738768       -1.850798        1.778079
 H         2.946704       -1.746401        0.517480
 H         2.155492       -1.902692       -1.077751
 H         1.228877        1.636949       -1.079370
 H         2.167317        2.098673        0.376625
 S         4.278126        0.432862        0.291773
 H         3.033528        0.229558       -1.639990
 H         1.703237       -2.051432        2.114635
 H         0.313762       -1.263830        2.527143
 H         4.441411        1.674704        0.469374
18
 generated by VMD
 C         2.226994       -1.238220       -0.180782
 C         0.844536       -1.044190        0.542598
 C         0.680696        0.499457        0.760299
 C         1.704340        1.229681       -0.164032
 C         2.803517        0.179016       -0.540532
 H        -0.370980        0.850234        0.577534
 H         0.899498        0.720923        1.848868
 H         0.037118       -1.390775       -0.158962
 N         0.739448       -1.861988        1.788650
 H         2.950595       -1.745520        0.502871
 H         2.155623       -1.897508       -1.084211
 H         1.225486        1.637848       -1.099477
 H         2.156017        2.114660        0.353840
 S         4.279926        0.417074        0.303779
 H         3.052000        0.240737       -1.641007
 H         1.704266       -2.069069        2.128770
 H         0.275656       -1.293241        2.536646
 H         4.452463        1.678297        0.457130
